100
1000
394
390
390
389
388
384
383
381
380
380
380
378
377
377
377
376
375
370
369
367
367
366
366
365
364
360
359
358
358
357
354
353
353
353
352
351
349
347
346
346
345
345
343
343
340
339
338
334
333
333
326
326
324
321
321
319
319
317
315
314
314
313
311
310
308
307
306
305
303
302
302
301
301
300
299
299
296
295
292
292
290
289
287
283
281
281
278
277
277
275
274
274
273
273
273
272
272
267
267
266
